p cnf 39 341
c ind 1 2 3 4 5 6 7 8 9 10 11 12 13 14 15 16 17 18 19 20 21 22 23 24 25 26 27 0
-4 -1 0
-7 -1 0
-1 -4 0
-7 -4 0
-1 -7 0
-4 -7 0
-13 -10 0
-16 -10 0
-10 -13 0
-16 -13 0
-10 -16 0
-13 -16 0
-22 -19 0
-25 -19 0
-19 -22 0
-25 -22 0
-19 -25 0
-22 -25 0
-5 -2 0
-8 -2 0
-2 -5 0
-8 -5 0
-2 -8 0
-5 -8 0
-14 -11 0
-17 -11 0
-11 -14 0
-17 -14 0
-11 -17 0
-14 -17 0
-23 -20 0
-26 -20 0
-20 -23 0
-26 -23 0
-20 -26 0
-23 -26 0
-6 -3 0
-9 -3 0
-3 -6 0
-9 -6 0
-3 -9 0
-6 -9 0
-15 -12 0
-18 -12 0
-12 -15 0
-18 -15 0
-12 -18 0
-15 -18 0
-24 -21 0
-27 -21 0
-21 -24 0
-27 -24 0
-21 -27 0
-24 -27 0
-10 -1 0
-19 -1 0
-1 -10 0
-19 -10 0
-1 -19 0
-10 -19 0
-13 -4 0
-22 -4 0
-4 -13 0
-22 -13 0
-4 -22 0
-13 -22 0
-16 -7 0
-25 -7 0
-7 -16 0
-25 -16 0
-7 -25 0
-16 -25 0
-11 -2 0
-20 -2 0
-2 -11 0
-20 -11 0
-2 -20 0
-11 -20 0
-14 -5 0
-23 -5 0
-5 -14 0
-23 -14 0
-5 -23 0
-14 -23 0
-17 -8 0
-26 -8 0
-8 -17 0
-26 -17 0
-8 -26 0
-17 -26 0
-12 -3 0
-21 -3 0
-3 -12 0
-21 -12 0
-3 -21 0
-12 -21 0
-15 -6 0
-24 -6 0
-6 -15 0
-24 -15 0
-6 -24 0
-15 -24 0
-18 -9 0
-27 -9 0
-9 -18 0
-27 -18 0
-9 -27 0
-18 -27 0
-28 1 0
-28 5 0
-28 9 0
-29 10 0
-29 14 0
-29 18 0
-30 19 0
-30 23 0
-30 27 0
-28 1 0
-28 11 0
-28 21 0
-29 4 0
-29 14 0
-29 24 0
-30 7 0
-30 17 0
-30 27 0
-31 -1 1 0
-31 -4 2 0
-31 -7 3 0
-32 -10 1 0
-32 -13 2 0
-32 -16 3 0
-33 -19 1 0
-33 -22 2 0
-33 -25 3 0
-31 -2 4 0
-31 -5 5 0
-31 -8 6 0
-32 -11 4 0
-32 -14 5 0
-32 -17 6 0
-33 -20 4 0
-33 -23 5 0
-33 -26 6 0
-31 -3 7 0
-31 -6 8 0
-31 -9 9 0
-32 -12 7 0
-32 -15 8 0
-32 -18 9 0
-33 -21 7 0
-33 -24 8 0
-33 -27 9 0
-34 -1 10 0
-34 -4 11 0
-34 -7 12 0
-35 -10 10 0
-35 -13 11 0
-35 -16 12 0
-36 -19 10 0
-36 -22 11 0
-36 -25 12 0
-34 -2 13 0
-34 -5 14 0
-34 -8 15 0
-35 -11 13 0
-35 -14 14 0
-35 -17 15 0
-36 -20 13 0
-36 -23 14 0
-36 -26 15 0
-34 -3 16 0
-34 -6 17 0
-34 -9 18 0
-35 -12 16 0
-35 -15 17 0
-35 -18 18 0
-36 -21 16 0
-36 -24 17 0
-36 -27 18 0
-37 -1 19 0
-37 -4 20 0
-37 -7 21 0
-38 -10 19 0
-38 -13 20 0
-38 -16 21 0
-39 -19 19 0
-39 -22 20 0
-39 -25 21 0
-37 -2 22 0
-37 -5 23 0
-37 -8 24 0
-38 -11 22 0
-38 -14 23 0
-38 -17 24 0
-39 -20 22 0
-39 -23 23 0
-39 -26 24 0
-37 -3 25 0
-37 -6 26 0
-37 -9 27 0
-38 -12 25 0
-38 -15 26 0
-38 -18 27 0
-39 -21 25 0
-39 -24 26 0
-39 -27 27 0
-1 -31 1 0
-10 -31 2 0
-19 -31 3 0
-4 -32 1 0
-13 -32 2 0
-22 -32 3 0
-7 -33 1 0
-16 -33 2 0
-25 -33 3 0
-1 -34 4 0
-10 -34 5 0
-19 -34 6 0
-4 -35 4 0
-13 -35 5 0
-22 -35 6 0
-7 -36 4 0
-16 -36 5 0
-25 -36 6 0
-1 -37 7 0
-10 -37 8 0
-19 -37 9 0
-4 -38 7 0
-13 -38 8 0
-22 -38 9 0
-7 -39 7 0
-16 -39 8 0
-25 -39 9 0
-2 -31 10 0
-11 -31 11 0
-20 -31 12 0
-5 -32 10 0
-14 -32 11 0
-23 -32 12 0
-8 -33 10 0
-17 -33 11 0
-26 -33 12 0
-2 -34 13 0
-11 -34 14 0
-20 -34 15 0
-5 -35 13 0
-14 -35 14 0
-23 -35 15 0
-8 -36 13 0
-17 -36 14 0
-26 -36 15 0
-2 -37 16 0
-11 -37 17 0
-20 -37 18 0
-5 -38 16 0
-14 -38 17 0
-23 -38 18 0
-8 -39 16 0
-17 -39 17 0
-26 -39 18 0
-3 -31 19 0
-12 -31 20 0
-21 -31 21 0
-6 -32 19 0
-15 -32 20 0
-24 -32 21 0
-9 -33 19 0
-18 -33 20 0
-27 -33 21 0
-3 -34 22 0
-12 -34 23 0
-21 -34 24 0
-6 -35 22 0
-15 -35 23 0
-24 -35 24 0
-9 -36 22 0
-18 -36 23 0
-27 -36 24 0
-3 -37 25 0
-12 -37 26 0
-21 -37 27 0
-6 -38 25 0
-15 -38 26 0
-24 -38 27 0
-9 -39 25 0
-18 -39 26 0
-27 -39 27 0
1 2 3 0
-1 -2 0
-1 -3 0
-2 -3 0
4 5 6 0
-4 -5 0
-4 -6 0
-5 -6 0
7 8 9 0
-7 -8 0
-7 -9 0
-8 -9 0
10 11 12 0
-10 -11 0
-10 -12 0
-11 -12 0
13 14 15 0
-13 -14 0
-13 -15 0
-14 -15 0
16 17 18 0
-16 -17 0
-16 -18 0
-17 -18 0
19 20 21 0
-19 -20 0
-19 -21 0
-20 -21 0
22 23 24 0
-22 -23 0
-22 -24 0
-23 -24 0
25 26 27 0
-25 -26 0
-25 -27 0
-26 -27 0
31 34 37 0
-31 -34 0
-31 -37 0
-34 -37 0
32 35 38 0
-32 -35 0
-32 -38 0
-35 -38 0
33 36 39 0
-33 -36 0
-33 -39 0
-36 -39 0
28 29 30 0
-28 -29 0
-28 -30 0
-29 -30 0
28 0
